p cnf 33 84
a 17 13 0
e 1 2 3 4 5 6 7 8 9 10 11 12 14 15 16 18 19 20 21 22 23 24 25 26 27 28 29 30 31 32 33 0
-1 -2 -3 0
1 2 -3 0
-1 2 3 0
1 -2 3 0
5 4 0
5 4 0
-4 -5 0
7 5 0
7 6 0
-5 -6 -7 0
9 -1 0
9 -8 0
1 8 -9 0
11 -1 0
11 -1 0
1 -11 0
-12 10 0
-12 -11 0
-10 11 12 0
13 9 0
13 -12 0
-9 12 -13 0
-14 -15 0
14 -15 0
17 -4 0
17 -16 0
4 16 -17 0
19 17 0
19 18 0
-17 -18 -19 0
-20 -15 0
-20 19 0
15 -19 20 0
21 -13 0
21 20 0
13 -20 -21 0
22 7 0
22 -21 0
-7 21 -22 0
-23 -10 0
-23 -14 0
10 14 23 0
10 -14 -24 0
-10 14 -24 0
10 14 24 0
-10 -14 24 0
8 10 -26 0
-8 -10 -26 0
8 -10 26 0
-8 10 26 0
25 -26 -27 0
-25 26 -27 0
25 26 27 0
-25 -26 27 0
-28 24 0
-28 27 0
-24 -27 28 0
-23 28 -29 0
23 -28 -29 0
-23 -28 29 0
23 28 29 0
30 22 0
30 -29 0
-22 29 -30 0
-31 3 0
-31 30 0
-3 -30 31 0
1 -12 -32 0
-1 12 -32 0
1 12 32 0
-1 -12 32 0
-31 -32 -33 0
31 32 -33 0
-31 32 33 0
31 -32 33 0
3 16 -21 25 -20 0
24 5 -6 1 20 14 0
-14 4 -26 -8 28 -32 0
-4 13 5 28 -3 11 -26 10 0
-25 4 3 -6 0
17 -16 6 -21 -14 0
5 9 -13 -31 0
-17 -30 29 0
33 0
